29165371747636538525014,14,1,2,05,1,1,2,013,1,1,2,05,10,1,2,05,5,1,2,02,12,1,2,08,3,1,2,013,12,1,2,06,4,1,2,012,11,1,2,02,2,1,2,013,15,1,2,06,15,1,2,01,4,1,2,03,10,1,2,014,13,1,2,011,12,1,2,015,6,1,2,010,2,1,2,014,14,1,2,08,10,1,2,01,3,1,2,03,11,1,2,014,10,1,2,05,2,1,2,012,7,1,2,013,15,1,2,015,10,1,2,011,10,1,2,02,5,1,2,010,5,1,2,012,12,1,2,015,3,1,2,011,7,1,2,013,14,1,2,03,11,1,2,012,7,1,2,06,4,1,2,010,15,1,2,03,8,1,2,013,9,1,2,010,5,1,2,03,11,1,2,08,3,1,2,03,3,1,2,01,1,1,2,011,5,1,2,02,13,1,2,07,13,1,2,01,8,1,2,0